37 52
42 57
49 49
52 41
56 37
61 33
58 27
48 28
40 30
31 32
25 32
20 26
17 33
21 47
16 57
17 63
5 64
8 52
12 42
7 38
5 25
10 17
5 6
13 13
21 10
30 15
27 23
32 22
36 16
39 10
46 10
59 15
51 21
42 41
38 46
30 48
25 55
31 62
27 68
37 69
43 67
52 64
63 69
62 63
57 58
58 48
62 42
52 33
45 35
32 39
30 40
37 52
